Pt 
 1.0000000000000000
     5.5479598051896515    0.0000000000000000    0.0000000000000000
    -2.7739799025948257    4.8046741304692038    0.0000000000000000
     0.0000000000000000   -0.0000000000000000   22.2649451060309005
   8
Cartesian
  0.0000000000000000  0.0000000000000000 10.0000000000000000
 -1.3869899512974126  2.4023370652346014 10.0000000000000000
  1.3869899512974131  2.4023370652346014 10.0000000000000000
  2.7739799025948257  0.0000000000000000 10.0000000000000000
  2.7739799025948257  1.6015580434897343 12.2649451060309023
  1.3869899512974131  4.0038951087243353 12.2649451060309023
 -1.3869899512974131  4.0038951087243353 12.2649451060309023
  0.0000000000000006  1.6015580434897343 12.2649451060309023
