&CONTROL
  calculation='relax',
  prefix='calc',
  pseudo_dir='/gpfs/pace1/project/chbe-medford/medford-share/data/pseudos/SSSP_eff_PBE',
  outdir='.',
  tprnfor=.true.,
/
&SYSTEM
  ibrav=0,
  celldm(1)=1.8897261245650618d0,
  nat=10,
  ntyp=3,
  ecutwfc=33.0743914118d0,
  ecutrho=330.743914118d0,
  nbnd=79,
  occupations='smearing',
  smearing='fd',
  degauss=0.00734986475817d0,
  input_dft='PBE',
/
&ELECTRONS
  diagonalization='cg',
  conv_thr=7.34986475817e-08,
  mixing_beta=0.05d0,
  mixing_mode='local-TF',
  electron_maxstep=1000,
  conv_thr=7.34986475817e-08,
/
&IONS
  ion_dynamics='ase3',
/
CELL_PARAMETERS
    5.547959805189651d0     0.000000000000000d0     0.000000000000000d0
   -2.773979902594826d0     4.804674130469204d0     0.000000000000000d0
    0.000000000000000d0    -0.000000000000000d0    22.264945106030900d0
ATOMIC_SPECIES
Pt1 195.08d0 Pt.UPF
O1 15.9994d0 O.UPF
C1 12.011d0 C.UPF
ATOMIC_POSITIONS {crystal}
Pt1      0.000000000000000d0     0.000000000000000d0     0.449136521665679d0
Pt1      0.000000000000000d0     0.500000000000000d0     0.449136521665679d0
Pt1      0.500000000000000d0     0.500000000000000d0     0.449136521665679d0
Pt1      0.500000000000000d0     0.000000000000000d0     0.449136521665679d0
Pt1      0.666666666666667d0     0.333333333333333d0     0.550863478334321d0
Pt1      0.666666666666667d0     0.833333333333333d0     0.550863478334321d0
Pt1      0.166666666666667d0     0.833333333333333d0     0.550863478334321d0
Pt1      0.166666666666667d0     0.333333333333333d0     0.550863478334321d0
O1       0.284311769474996d0     0.208130660445508d0     0.633953734842472d0
C1       0.284311769474996d0     0.208130660445508d0     0.582287764209182d0
K_POINTS automatic
5 7 1 0 0 0
